
  23    0


   0  12 2 3 4 5 6 9 10 18 19 20 21 22 
   4   4 17 15 12 8 
   2   4 16 13 12 11 
   3   3 13 12 7 
   7   2 15 12 
   9   2 14 13 
   5   1 14 
   9   1 11 
   7   1 11 
   9   1 11 
   8   1 23
   9   1 23
   8   1 23
   7   1 23
   9   1 23
   2   1 23
   8   1 23
   5   1 23
   6   1 23
   9   1 23
   8   1 23
   6   1 23
   0   0 
